WARNING: for repeatability, setting FPU to use double precision
============================[ Problem Statistics ]=============================
|                                                                             |
|  Number of variables:           800                                         |
|  Number of clauses:           33665                                         |
|  Parse time:                   0.01 s                                       |
|                                                                             |
c ============================[ Search Statistics ]==============================
c | Conflicts |          ORIGINAL         |          LEARNT          | Progress |
c |           |    Vars  Clauses Literals |    Limit  Clauses Lit/Cl |          |
c ===============================================================================
c Switched to VSIDS.
c Switched to LRB.
c Switched to VSIDS.
c Switched to LRB.
c Switched to VSIDS.
c Switched to LRB.
c Switched to VSIDS.
c Switched to LRB.
c Switched to VSIDS.
c Switched to LRB.
c Switched to VSIDS.
c Switched to LRB.
c Switched to VSIDS.
c ===============================================================================
restarts                  : 81428
conflicts                 : 18718404       (5312 /sec)
decisions                 : 36338197       (0.00 % random) (10312 /sec)
propagations              : 843696828      (239429 /sec)
conflict literals         : 5236544867     (8.37 % deleted)

conflicts w/ DIP found    : 11426990       (61.05 % of conflicts)
conflicts w/ dangerous DIP: 0              (0.00 % of conflicts)
conflicts w/ DIP-learning : 4027           (0.02 % of conflicts)
decisions on ext vars     : 316            (0.00 % of decisions)
total ext vars            : 772         
tried delete ext vars     : 64          
deleted ext vars          : 64          
max ext vars              : 708         

Memory used               : 414.00 MB
CPU time                  : 3523.79 s
DIP computation time      : 97.9442 s (2.78 % of total time)
ER_sel time               : 35.1739 s
ER_add time               : 0.005902 s
ER_delC time              : 0 s
ER_delV time              : 0.305226 s
ER_sub time               : 38.0445 s
ER_stat time              : 0 s

INDETERMINATE
